%%% static parameters %%%
timespan = 1;
Fact = [2];
Distr1 = [5];
Distr2 = [10];
Clients_N = [120];
Demand_W = [15];
Lt0 = [4];
Lt1 = [4];
SS_ = [0.85];
DS_D = [5];
K = [200];
MA = [500];
%%% dynamic parameters %%%
lost_ratio_sales_ret_th = 0.2264890900235611;
lost_ratio_sales_ret_w = 9;
lost_ratio_sales_dis_th = 0.12117408655570916;
lost_ratio_sales_dis_w = 90;
lost_ratio_sales_fac_th = 0.7077966454194158;
lost_ratio_sales_fac_w = 30;
stock_customer_MA_mean_relative_th = 0.5521842656000582;
stock_customer_MA_mean_relative_w = 67;
stock_distributor_MA_mean_relative_th = 0.4646893563356599;
stock_distributor_MA_mean_relative_w = 3;
stock_retailer_MA_mean_relative_th = 0.6796738000218185;
stock_retailer_MA_mean_relative_w = 30;
stock_factory_MA_mean_relative_th = 0.08163967341183509;
stock_factory_MA_mean_relative_w = 99;
